p cnf 31 78
a 9 21 0
e 1 2 3 4 5 6 7 8 10 11 12 13 14 15 16 17 18 19 20 22 23 24 25 26 27 28 29 30 31 0
-1 -2 -3 0
1 2 -3 0
-1 2 3 0
1 -2 3 0
-3 -4 -5 0
3 4 -5 0
-3 4 5 0
3 -4 5 0
7 -5 0
7 -6 0
5 6 -7 0
10 8 0
10 -9 0
-8 9 -10 0
-11 -10 0
-11 3 0
10 -3 11 0
12 4 0
12 2 0
-4 -2 -12 0
-12 -4 -13 0
12 4 -13 0
-12 4 13 0
12 -4 13 0
14 -11 0
14 13 0
11 -13 -14 0
16 15 0
16 4 0
-15 -4 -16 0
17 14 0
17 -16 0
-14 16 -17 0
-20 -18 0
-20 19 0
18 -19 20 0
21 -20 0
21 6 0
20 -6 -21 0
-21 12 -22 0
21 -12 -22 0
-21 -12 22 0
21 12 22 0
20 22 -23 0
-20 -22 -23 0
20 -22 23 0
-20 22 23 0
17 23 -24 0
-17 -23 -24 0
17 -23 24 0
-17 23 24 0
-25 7 0
-25 24 0
-7 -24 25 0
-27 26 0
-27 -10 0
-26 10 27 0
28 6 0
28 -27 0
-6 27 -28 0
-29 -28 0
-29 22 0
28 -22 29 0
9 -29 -30 0
-9 29 -30 0
9 29 30 0
-9 -29 30 0
31 25 0
31 30 0
-25 -30 -31 0
15 29 12 18 0
24 -2 -25 13 0
-27 -9 23 -12 -25 -31 -30 0
8 1 -6 0
18 -20 26 -30 17 -24 12 0
-22 -28 -14 8 27 0
-29 -8 16 -27 -10 31 0
31 0
